--- Job allocate_miro3.gms Start 06/25/20 15:16:28 31.1.0 r55b6ce3 WEX-WEI x86 64bit/MS Windows
--- Applying:
    E:\31.1\gmsprmNT.txt
--- GAMS Parameters defined
    Input C:\Users\hasee\Documents\GitHub\GAMS-MIRO\Allocate\allocate_miro3.gms
    ScrDir C:\Users\hasee\Documents\GitHub\GAMS-MIRO\Allocate\225a\
    SysDir E:\31.1\
    CurDir C:\Users\hasee\Documents\GitHub\GAMS-MIRO\Allocate\
    LogOption 3
    Trace C:\Users\hasee\Documents\GitHub\GAMS-MIRO\Allocate\_sys_trace_allocate_miro3.trc
    InputDir1 C:\Users\hasee\Documents\GitHub\GAMS-MIRO\Allocate\
    TraceOpt 3
    ExecMode 0
    LstTitleLeftAligned 1
    IDCGDXInput _miro_gdxin_.gdx
    IDCGDXOutput _miro_gdxout_.gdx
GAMS 31.1.0   Copyright (C) 1987-2020 GAMS Development. All rights reserved
*** License has expired 16 days ago
Licensee: CS526 Advanced Linear Programming              G200210/0001AS-GEN
          Course License UW-Madison, Prof Ferris, Spring 2020        DCE515
          E:\31.1\gamslice.txt
          Evaluation license: Not for commercial or production use
--- Starting compilation
--- allocate_miro3.gms(17) 3 Mb
--- GDXin=C:\Users\hasee\Documents\GitHub\GAMS-MIRO\Allocate\_miro_gdxin_.gdx
--- allocate_miro3.gms(59) 3 Mb
--- GDXin=C:\Users\hasee\Documents\GitHub\GAMS-MIRO\Allocate\_miro_gdxin_.gdx
--- allocate_miro3.gms(75) 3 Mb
--- GDXin=C:\Users\hasee\Documents\GitHub\GAMS-MIRO\Allocate\_miro_gdxin_.gdx
--- allocate_miro3.gms(328) 3 Mb
--- Starting execution: elapsed 0:00:00.017
--- allocate_miro3.gms(282) 4 Mb
--- Generating MIP model vivak
--- allocate_miro3.gms(283) 4 Mb
---   206 rows  356 columns  961 non-zeroes
---   85 discrete-columns
--- Executing CPLEX: elapsed 0:00:00.064

IBM ILOG CPLEX   31.1.0 r55b6ce3 Released May 01, 2020 WEI x86 64bit/MS Window
--- GAMS/Cplex licensed for continuous and discrete problems.
Cplex 12.10.0.0

Reading data...
Starting Cplex...
Space for names approximately 0.01 Mb
Use option 'names no' to turn use of names off
Version identifier: 12.10.0.0 | 2019-11-26 | 843d4de2ae
CPXPARAM_Advance                                 0
CPXPARAM_Threads                                 1
CPXPARAM_Parallel                                1
CPXPARAM_MIP_Display                             4
CPXPARAM_Simplex_Limits_Iterations               2000000000
CPXPARAM_TimeLimit                               1000
CPXPARAM_Tune_TimeLimit                          200
CPXPARAM_MIP_Tolerances_AbsMIPGap                0
CPXPARAM_MIP_Tolerances_MIPGap                   0.001
CPXPARAM_WorkDir                                 "C:\Users\hasee\Documents\GitHub\GAMS-MIRO\Allocate\225a\"
Found incumbent of value 0.000000 after 0.00 sec. (0.01 ticks)
Tried aggregator 2 times.
MIP Presolve eliminated 55 rows and 106 columns.
MIP Presolve modified 14 coefficients.
Aggregator did 15 substitutions.
Reduced MIP has 136 rows, 235 columns, and 587 nonzeros.
Reduced MIP has 15 binaries, 70 generals, 0 SOSs, and 0 indicators.
Presolve time = 0.00 sec. (0.57 ticks)
Probing time = 0.00 sec. (0.06 ticks)
Tried aggregator 1 time.
Detecting symmetries...
MIP Presolve eliminated 9 rows and 30 columns.
Reduced MIP has 127 rows, 205 columns, and 527 nonzeros.
Reduced MIP has 15 binaries, 70 generals, 0 SOSs, and 0 indicators.
Presolve time = 0.00 sec. (0.40 ticks)
Probing time = 0.00 sec. (0.05 ticks)
Clique table members: 5.
MIP emphasis: balance optimality and feasibility.
MIP search method: dynamic search.
Parallel mode: none, using 1 thread.
Tried aggregator 1 time.
Aggregator did 80 substitutions.
Reduced LP has 47 rows, 125 columns, and 367 nonzeros.
Presolve time = 0.00 sec. (0.12 ticks)
Initializing dual steep norms . . .

Iteration log . . .
Iteration:     1   Dual objective     =        100410.734643
Iteration:    62   Dual objective     =         13348.947883
Initializing dual steep norms . . .
Root relaxation solution time = 0.00 sec. (0.63 ticks)

        Nodes                                         Cuts/
   Node  Left     Objective  IInf  Best Integer    Best Bound    ItCnt     Gap

*     0+    0                            0.0000   109133.4981              --- 
Found incumbent of value 0.000000 after 0.02 sec. (1.97 ticks)
      0     0    12949.4521    22        0.0000    12949.4521       94     --- 
*     0+    0                         7480.5905    12949.4521            73.11%
Found incumbent of value 7480.590520 after 0.02 sec. (2.58 ticks)
      0     0    12462.1257    22     7480.5905      Cuts: 59      135   66.59%
*     0+    0                         8239.1781    12462.1257            51.25%
Found incumbent of value 8239.178127 after 0.02 sec. (4.85 ticks)
      0     0    12254.4463    22     8239.1781      Cuts: 41      171   48.73%
      0     0    11999.4797    22     8239.1781      Cuts: 39      198   45.64%
      0     0    11973.3725    22     8239.1781      Cuts: 11      211   45.32%
*     0+    0                         9626.5557    11973.3725            24.38%
Found incumbent of value 9626.555745 after 0.03 sec. (10.34 ticks)
      0     0    11968.7402    22     9626.5557      Cuts: 25      225   24.33%
      0     0    11965.9267    22     9626.5557      Cuts: 13      236   24.30%
      0     0    11964.4853    22     9626.5557      Cuts: 13      244   24.29%
      0     0    11964.3830    22     9626.5557      Cuts: 11      251   24.29%
      0     0    11963.9283    22     9626.5557       Cuts: 9      260   24.28%
*     0+    0                        10997.9906    11963.9283             8.78%
Found incumbent of value 10997.990603 after 0.05 sec. (18.60 ticks)
      0     2    11963.9283    23    10997.9906    11961.5098      260    8.76%
Elapsed time = 0.06 sec. (23.75 ticks, tree = 0.01 MB, solutions = 5)
*    10+   10                        11304.8755    11955.6634             5.76%
Found incumbent of value 11304.875509 after 0.06 sec. (28.43 ticks)
*    28    17      integral     0    11615.7295    11955.6634      597    2.93%
Found incumbent of value 11615.729512 after 0.08 sec. (32.30 ticks)
*    70    25      integral     0    11757.8821    11887.2069     1021    1.10%
                                                      Cuts: 3                  
Found incumbent of value 11757.882144 after 0.09 sec. (43.67 ticks)
*    74    24      integral     0    11779.7648    11887.2069     1025    0.91%
Found incumbent of value 11779.764824 after 0.09 sec. (44.01 ticks)
*   130    29      integral     0    11816.0598    11869.9981     1457    0.46%
Found incumbent of value 11816.059848 after 0.11 sec. (55.20 ticks)
*   157    28      integral     0    11829.7547    11869.5060     1633    0.34%
Found incumbent of value 11829.754696 after 0.13 sec. (59.09 ticks)
*   170+   26                        11836.9880    11868.8887             0.27%
Found incumbent of value 11836.988041 after 0.13 sec. (61.86 ticks)
*   210+    8                        11841.9604    11849.8709             0.07%
                                                  Impl Bds: 1                  
Found incumbent of value 11841.960431 after 0.14 sec. (68.64 ticks)

Implied bound cuts applied:  14
Flow cuts applied:  1
Mixed integer rounding cuts applied:  31
Lift and project cuts applied:  2
Gomory fractional cuts applied:  2

Root node processing (before b&c):
  Real time             =    0.06 sec. (23.74 ticks)
Sequential b&c:
  Real time             =    0.08 sec. (45.07 ticks)
                          ------------
Total (root+branch&cut) =    0.14 sec. (68.81 ticks)
MIP status(102): integer optimal, tolerance
Cplex Time: 0.14sec (det. 68.81 ticks)
Fixing integer variables, and solving final LP...
Version identifier: 12.10.0.0 | 2019-11-26 | 843d4de2ae
CPXPARAM_Advance                                 2
CPXPARAM_Threads                                 1
CPXPARAM_Parallel                                1
CPXPARAM_MIP_Display                             4
CPXPARAM_Simplex_Limits_Iterations               2000000000
CPXPARAM_TimeLimit                               1000
CPXPARAM_Tune_TimeLimit                          200
CPXPARAM_MIP_Tolerances_AbsMIPGap                0
CPXPARAM_MIP_Tolerances_MIPGap                   0.001
CPXPARAM_WorkDir                                 "C:\Users\hasee\Documents\GitHub\GAMS-MIRO\Allocate\225a\"
Tried aggregator 1 time.
LP Presolve eliminated 176 rows and 304 columns.
Aggregator did 8 substitutions.
Reduced LP has 22 rows, 44 columns, and 74 nonzeros.
Presolve time = 0.00 sec. (0.19 ticks)
Initializing dual steep norms . . .

Iteration log . . .
Iteration:     1   Dual objective     =         12355.737041
Fixed MIP status(1): optimal
Cplex Time: 0.00sec (det. 0.33 ticks)

Solution satisfies tolerances.

MIP Solution:        11841.960431    (2064 iterations, 210 nodes)
Final Solve:         11841.960431    (24 iterations)

Best possible:       11849.870911
Absolute gap:            7.910480
Relative gap:            0.000668

--- Restarting execution
--- allocate_miro3.gms(283) 2 Mb
--- Reading solution for model vivak
--- allocate_miro3.gms(328) 3 Mb
--- GDX File C:\Users\hasee\Documents\GitHub\GAMS-MIRO\Allocate\_miro_gdxout_.gdx
*** Status: Normal completion
--- Job allocate_miro3.gms Stop 06/25/20 15:16:28 elapsed 0:00:00.384
